&CONTROL
title="Test"
calculation='md',
restart_mode = 'from_scratch',
tprnfor=.t.,
prefix='qe',
pseudo_dir='pseudo'
nstep = 200,
tqmmm = .true.
/

&SYSTEM
ibrav = 1,
celldm(1) = 9.321077825,
celldm(2) = 1.,
celldm(3) = 1.,
celldm(4) = 0.,
celldm(5) = 0.,
celldm(6) = 0.,
nat = 24,
ntyp = 2,
ecutwfc = 80.0 ,
/

&ELECTRONS
conv_thr  = 1.D-6,
/

&IONS
ion_positions = 'default'
/

ATOMIC_SPECIES
O 16.0000 O.pbe-van_bm.UPF
H 1.0000  H.pbe-van_ak.UPF

ATOMIC_POSITIONS angstrom
O 4.92718 4.99809 1.10308
H 5.80905 5.31488 0.90767
H 4.87602 4.14701 0.667997
O 0.0880888 4.00127 0.245364
H 9.67931 3.21326 0.714742
H 0.329457 3.6894 9.23817
O 8.38355 2.57034 3.9726
H 7.44821 2.36788 3.95264
H 8.7019 2.15517 4.77417
O 7.00057 7.16334 4.02289
H 7.72912 7.3014 3.41759
H 7.21545 6.34743 4.47493
O 4.30406 0.919395 2.3125
H 4.6805 1.40121 1.57604
H 4.49956 9.86655 2.12387
O 3.14136 6.90125 0.70106
H 2.42226 6.62251 1.26801
H 3.71511 6.13692 0.647808
O 7.16357 4.36105 7.68273
H 7.35485 3.47729 7.99679
H 7.40743 4.93254 8.41087
O 9.36571 1.39718 6.75649
H 9.80707 2.14953 7.15071
H 8.72182 1.12662 7.41103

K_POINTS gamma
